k = 26;
b = 13;
AtomicConstraints =  [|
3, 1|
	3, 2|
	4, 1|
	4, 2|
	5, 1|
	5, 2|
	5, 3|
	5, 4|
	6, 1|
	6, 2|
	6, 3|
	6, 4|
	7, 1|
	7, 2|
	7, 3|
	7, 4|
	8, 1|
	8, 2|
	8, 3|
	8, 4|
	8, 5|
	8, 6|
	9, 1|
	9, 2|
	9, 3|
	9, 4|
	9, 5|
	9, 6|
	9, 7|
	10, 1|
	10, 2|
	10, 3|
	10, 4|
	10, 5|
	10, 6|
	10, 7|
	11, 1|
	11, 2|
	11, 3|
	11, 4|
	11, 5|
	11, 6|
	11, 8|
	11, 9|
	12, 1|
	12, 2|
	12, 3|
	12, 4|
	12, 5|
	12, 6|
	12, 7|
	12, 8|
	12, 9|
	12, 10|
	13, 1|
	13, 2|
	13, 3|
	13, 4|
	13, 5|
	13, 6|
	13, 8|
	13, 9|
	13, 11|
	13, 12|
	20, 16|
	20, 14|
	20, 15|
	18, 14|
	19, 14|
	19, 15|
	24, 18|
	24, 19|
	24, 14|
	24, 15|
	25, 18|
	25, 19|
	25, 14|
	25, 15|
	26, 1|
	26, 2|
	26, 3|
	26, 4|
	26, 5|
	26, 6|
	26, 7|
	26, 8|
	26, 9|
	26, 10|
	26, 11|
	26, 12|
	26, 13|];
DisjunctiveConstraints =  [|5, 2, 15, 5|
	6, 7, 6, 5|
	8, 15, 8, 2|
	9, 10, 9, 8|
	11, 15, 11, 2|
	13, 15, 13, 2|
	18, 14, 18, 1|
	19, 15, 19, 2|
	24, 15, 24, 2|];
SoftAtomicConstraints =  [|
2, 1|
4, 3|
6, 5|
7, 6|
9, 8|
10, 9|
12, 11|
15, 14|
16, 15|
17, 16|
19, 18|
20, 19|
21, 22|
24, 23|
25, 24|];
DirectSuccessors =  [];
